NAME: GRASP_20_2
TYPE: TSP
COMMENT: line_20_2
DIMENSION: 20
EDGE_WEIGHT_TYPE: EUC_2D
NODE_COORD_SECTION
1 3598 1315
2 564 1985
3 2486 4443
4 507 1378
5 4041 2128
6 2757 2791
7 2771 4233
8 103 651
9 3617 4521
10 38 4034
11 2386 2848
12 3773 598
13 104 2969
14 4475 2925
15 2633 2832
16 3519 627
17 449 1952
18 674 451
19 1759 2267
20 2382 3008
